
Gurobi 9.5.0 (win64) logging started Tue Dec  7 12:35:51 2021

Set parameter LogFile to value "../results/logs/log_2021_12_07_12_26.csv_4_15.log"
Set parameter Method to value 3
Gurobi Optimizer version 9.5.0 build v9.5.0rc5 (win64)
Thread count: 6 physical cores, 12 logical processors, using up to 12 threads
Optimize a model with 2962 rows, 9882 columns and 30211 nonzeros
Model fingerprint: 0xc86eae4b
Variable types: 4941 continuous, 4941 integer (4941 binary)
Coefficient statistics:
  Matrix range     [1e+00, 4e+00]
  Objective range  [1e+00, 1e+00]
  Bounds range     [1e+00, 1e+00]
  RHS range        [1e+00, 2e+01]
Found heuristic solution: objective 36.0000000
Presolve removed 1475 rows and 7622 columns
Presolve time: 0.03s
Presolved: 1487 rows, 2260 columns, 8333 nonzeros
Variable types: 1293 continuous, 967 integer (941 binary)
Found heuristic solution: objective 43.0000000

Concurrent LP optimizer: primal simplex, dual simplex, and barrier
Showing barrier log only...

Root barrier log...

Ordering time: 0.00s

Barrier statistics:
 AA' NZ     : 6.354e+03
 Factor NZ  : 1.841e+04 (roughly 2 MB of memory)
 Factor Ops : 2.649e+05 (less than 1 second per iteration)
 Threads    : 1

                  Objective                Residual
Iter       Primal          Dual         Primal    Dual     Compl     Time
   0   3.61514369e+03  4.97747269e+03  3.08e+03 7.77e-01  1.15e+01     0s
   1   9.85351045e+02  4.54544283e+03  6.74e+02 4.00e-15  2.68e+00     0s
   2   3.80738428e+02  1.57606382e+03  9.13e+01 3.11e-15  4.24e-01     0s
   3   2.66323825e+02  4.63720204e+02  1.69e+01 4.94e-15  7.55e-02     0s
   4   2.28014537e+02  3.06539305e+02  4.44e+00 4.39e-15  2.59e-02     0s
   5   2.13025777e+02  2.36369005e+02  1.50e+00 2.62e-15  8.23e-03     0s
   6   2.07336629e+02  2.12526212e+02  2.45e-01 5.58e-15  1.55e-03     0s
   7   2.07119843e+02  2.09250619e+02  1.12e-01 5.42e-15  6.62e-04     0s
   8   2.06999423e+02  2.07804615e+02  2.11e-02 4.64e-15  1.94e-04     0s

Barrier performed 8 iterations in 0.07 seconds (0.04 work units)
Barrier solve interrupted - model solved by another algorithm


Solved with primal simplex

Root relaxation: objective 2.070782e+02, 1099 iterations, 0.02 seconds (0.02 work units)

    Nodes    |    Current Node    |     Objective Bounds      |     Work
 Expl Unexpl |  Obj  Depth IntInf | Incumbent    BestBd   Gap | It/Node Time

     0     0  207.07824    0  571   43.00000  207.07824   382%     -    0s
H    0     0                      49.0000000  207.07824   323%     -    0s
H    0     0                      59.0000000   97.33293  65.0%     -    0s
     0     0   97.33293    0  152   59.00000   97.33293  65.0%     -    0s
     0     0   94.53147    0  128   59.00000   94.53147  60.2%     -    0s
     0     0   94.38220    0  144   59.00000   94.38220  60.0%     -    0s
     0     0   94.36567    0  144   59.00000   94.36567  59.9%     -    0s
     0     0   83.93610    0  110   59.00000   83.93610  42.3%     -    0s
     0     0   82.97226    0   99   59.00000   82.97226  40.6%     -    0s
     0     0   82.78662    0   88   59.00000   82.78662  40.3%     -    0s
     0     0   82.76933    0   93   59.00000   82.76933  40.3%     -    0s
     0     0   80.26617    0   88   59.00000   80.26617  36.0%     -    0s
     0     0   79.90931    0   86   59.00000   79.90931  35.4%     -    0s
     0     0   79.68733    0   80   59.00000   79.68733  35.1%     -    0s
     0     0   79.65664    0  142   59.00000   79.65664  35.0%     -    0s
     0     0   79.19697    0  107   59.00000   79.19697  34.2%     -    0s
     0     0   79.19697    0  107   59.00000   79.19697  34.2%     -    0s
H    0     0                      70.0000000   79.19697  13.1%     -    0s
     0     2   79.19697    0  107   70.00000   79.19697  13.1%     -    0s
H  124    91                      71.0000000   78.45413  10.5%  41.0    1s
*  224   151              21      72.0000000   78.45413  8.96%  34.3    1s
H  879   308                      73.0000000   75.79203  3.82%  32.9    2s

Cutting planes:
  Gomory: 124
  Lift-and-project: 33
  Implied bound: 10
  MIR: 584
  Inf proof: 2
  RLT: 177
  Relax-and-lift: 11

Explored 1506 nodes (45515 simplex iterations) in 2.88 seconds (2.58 work units)
Thread count was 12 (of 12 available processors)

Solution count 8: 73 72 71 ... 36

Optimal solution found (tolerance 1.00e-04)
Best objective 7.300000000000e+01, best bound 7.300000000000e+01, gap 0.0000%
